************************************************************************
file with basedata            : n/a
initial value random generator: n/a
************************************************************************
projects                      :  1
jobs (incl. supersource/sink ):  122
horizon                       :  640
RESOURCES
  - renewable                 :  4   R
  - nonrenewable              :  0   N
  - doubly constrained        :  0   D
************************************************************************
PROJECT INFORMATION:
pronr.  #jobs rel.date duedate tardcost  MPM-Time
    1    120      0      121       34      121
************************************************************************
PRECEDENCE RELATIONS:
jobnr.    #modes  #successors   successors
   1        1          3           2   3   4
   2        1          3          13  16  20
   3        1          3           5   7  28
   4        1          3           6  10  11
   5        1          3          53  56  61
   6        1          3          19  25  43
   7        1          3           8   9  12
   8        1          3          11  47  51
   9        1          2          17  79
  10        1          3          24  31  34
  11        1          3          15  22  38
  12        1          3          14  18  50
  13        1          2          41  60
  14        1          3          29  30  36
  15        1          3          23  26  27
  16        1          3          21  46  51
  17        1          2          42 109
  18        1          1          84
  19        1          3          69  90 103
  20        1          2          22  33
  21        1          2          29  83
  22        1          3          42  44  48
  23        1          3          32  35  71
  24        1          3          29  37  70
  25        1          3          67  82  86
  26        1          3          57  60  75
  27        1          3          40  59  84
  28        1          3          39  55  67
  29        1          3          65  66  72
  30        1          3          37  38  46
  31        1          2          52  95
  32        1          3          54  75  78
  33        1          1          46
  34        1          3          59  75 106
  35        1          3          62  91  95
  36        1          2          51  62
  37        1          2          39  96
  38        1          3          39  45  53
  39        1          3          48  63  86
  40        1          2          72 100
  41        1          3          70  95 120
  42        1          3          50  64  77
  43        1          2          50  76
  44        1          1         113
  45        1          2          82  85
  46        1          2          49  62
  47        1          1         116
  48        1          2          59 109
  49        1          3          58  71 101
  50        1          3          65  80  89
  51        1          3          54  61  70
  52        1          3          54  56  58
  53        1          2          58  96
  54        1          3          64  80 109
  55        1          1          91
  56        1          3          83 107 116
  57        1          3          90  98 118
  58        1          3          64  65  89
  59        1          3          60  66  94
  60        1          2          87 101
  61        1          2          68  82
  62        1          2          77 102
  63        1          3          74  78 104
  64        1          2          68  97
  65        1          1         112
  66        1          2          88 115
  67        1          1          81
  68        1          3          69  73  85
  69        1          3          94  99 111
  70        1          2          78  85
  71        1          2          89  93
  72        1          2          77  81
  73        1          3          74  84  99
  74        1          3          87  92  98
  75        1          3          79  81  93
  76        1          3          83  88 108
  77        1          3          80  90 106
  78        1          2          79 102
  79        1          1          88
  80        1          1          92
  81        1          2          98 115
  82        1          3          97 110 114
  83        1          2          86 112
  84        1          3          87  92 112
  85        1          1          99
  86        1          2          97 119
  87        1          1          91
  88        1          2         101 110
  89        1          1         105
  90        1          1          96
  91        1          3         100 103 107
  92        1          1          93
  93        1          2          94 103
  94        1          1         113
  95        1          2         104 110
  96        1          1         108
  97        1          2         100 105
  98        1          3         102 107 121
  99        1          1         104
 100        1          1         111
 101        1          1         116
 102        1          1         119
 103        1          1         114
 104        1          2         105 117
 105        1          1         106
 106        1          1         115
 107        1          1         108
 108        1          1         114
 109        1          1         118
 110        1          2         111 113
 111        1          1         118
 112        1          1         120
 113        1          1         117
 114        1          1         120
 115        1          1         121
 116        1          1         117
 117        1          1         119
 118        1          1         121
 119        1          1         122
 120        1          1         122
 121        1          1         122
 122        1          0        
************************************************************************
REQUESTS/DURATIONS:
jobnr. mode duration  R 1  R 2  R 3  R 4
------------------------------------------------------------------------
  1      1     0    
  2      1     1       2
                       9
                       1
                       8
  3      1     9       5  10  10  10  10  10  10  10   5
                       4   7   7   7   7   7   7   7   4
                       3   5   5   5   5   5   5   5   3
                       2   4   4   4   4   4   4   4   2
  4      1     6       7   7   7   7   7   4
                       9   9   9   9   9   5
                       9   9   9   9   9   5
                       6   6   6   6   6   3
  5      1     8       8   8   8   8   8   8   4   8
                       7   7   7   7   7   7   4   7
                       4   4   4   4   4   4   2   4
                       9   9   9   9   9   9   5   9
  6      1     2       3   3
                       1   1
                       8   8
                       7   7
  7      1     9       8   8   8   8   8   8   8   4   8
                       2   2   2   2   2   2   2   1   2
                       8   8   8   8   8   8   8   4   8
                       9   9   9   9   9   9   9   5   9
  8      1     6      10  10  10  10  10  10
                       2   2   2   2   2   2
                       7   7   7   7   7   7
                      10  10  10  10  10  10
  9      1     5       5  10  10  10  10
                       4   7   7   7   7
                       3   5   5   5   5
                       2   4   4   4   4
 10      1     6       2   4   4   4   4   2
                       2   3   3   3   3   2
                       4   8   8   8   8   4
                       3   5   5   5   5   3
 11      1     1       4
                       1
                       4
                       9
 12      1     4       9   5   9   9
                       8   4   8   8
                       8   4   8   8
                       2   1   2   2
 13      1     1       5
                      10
                       1
                       6
 14      1     8       2   3   3   3   3   3   3   3
                       2   3   3   3   3   3   3   3
                       3   5   5   5   5   5   5   5
                       1   2   2   2   2   2   2   2
 15      1     1       4
                       5
                       5
                       1
 16      1     5       2   4   4   4   4
                       5   9   9   9   9
                       5   9   9   9   9
                       1   1   1   1   1
 17      1     1       2
                       1
                       6
                       2
 18      1     9       9   5   9   5   5   9   9   5   9
                      10   5  10   5   5  10  10   5  10
                      10   5  10   5   5  10  10   5  10
                       7   4   7   4   4   7   7   4   7
 19      1     8       7   7   7   7   7   7   4   4
                       4   4   4   4   4   4   2   2
                       5   5   5   5   5   5   3   3
                      10  10  10  10  10  10   5   5
 20      1     4       6   6   6   3
                       8   8   8   4
                       9   9   9   5
                       4   4   4   2
 21      1     4       1   1   1   1
                      10  10  10   5
                       9   9   9   5
                       3   3   3   2
 22      1     3      10  10  10
                      10  10  10
                       7   7   7
                       1   1   1
 23      1     7       7   7   7   7   7   7   4
                       4   4   4   4   4   4   2
                       6   6   6   6   6   6   3
                       1   1   1   1   1   1   1
 24      1     2       4   7
                       1   1
                       5  10
                       4   7
 25      1     6       1   1   1   1   1   1
                       1   1   1   1   1   1
                       1   1   1   1   1   1
                       5  10   5   5  10  10
 26      1    10       2   2   2   1   2   2   2   2   2   2
                       2   2   2   1   2   2   2   2   2   2
                       9   9   9   5   9   9   9   9   9   9
                       5   5   5   3   5   5   5   5   5   5
 27      1     7       6   6   6   6   6   6   6
                       8   8   8   8   8   8   8
                       1   1   1   1   1   1   1
                      10  10  10  10  10  10  10
 28      1     8       1   1   1   1   1   1   1   1
                       7   7   7   7   7   7   7   7
                       7   7   7   7   7   7   7   7
                       4   4   4   4   4   4   4   4
 29      1    10       5   5   5   5   5   5   5   5   5   5
                       8   8   8   8   8   8   8   8   8   8
                       2   2   2   2   2   2   2   2   2   2
                       3   3   3   3   3   3   3   3   3   3
 30      1     4       5   5   5   5
                       6   6   6   6
                       8   8   8   8
                       4   4   4   4
 31      1     8       5   5   5   5   5   5   3   5
                       1   1   1   1   1   1   1   1
                       1   1   1   1   1   1   1   1
                       9   9   9   9   9   9   5   9
 32      1     9       8   8   8   8   8   8   8   8   8
                       1   1   1   1   1   1   1   1   1
                       7   7   7   7   7   7   7   7   7
                       5   5   5   5   5   5   5   5   5
 33      1     7       1   1   1   1   1   1   1
                       5   9   5   9   9   9   9
                       2   3   2   3   3   3   3
                       4   8   4   8   8   8   8
 34      1     1       4
                       5
                       3
                       4
 35      1     1       2
                       9
                       3
                       4
 36      1     1       5
                       5
                       5
                       5
 37      1     8       6   3   6   6   6   6   6   6
                       9   5   9   9   9   9   9   9
                       7   4   7   7   7   7   7   7
                       7   4   7   7   7   7   7   7
 38      1     3       8   8   8
                       3   3   3
                       4   4   4
                       2   2   2
 39      1     9       3   2   3   3   3   3   3   3   3
                       1   1   1   1   1   1   1   1   1
                       8   4   8   8   8   8   8   8   8
                       1   1   1   1   1   1   1   1   1
 40      1     1      10
                       5
                       3
                       4
 41      1    10       5   3   5   5   5   5   5   5   5   5
                       9   5   9   9   9   9   9   9   9   9
                       4   2   4   4   4   4   4   4   4   4
                       7   4   7   7   7   7   7   7   7   7
 42      1     2       6   6
                       4   4
                      10  10
                       8   8
 43      1     8       5   3   5   5   5   5   3   5
                      10   5  10  10  10  10   5  10
                       3   2   3   3   3   3   2   3
                       4   2   4   4   4   4   2   4
 44      1     5       1   1   1   1   1
                       7   4   7   7   7
                       5   3   5   5   5
                       5   3   5   5   5
 45      1     1       3
                       6
                       3
                       9
 46      1     4       9   9   9   9
                       9   9   9   9
                       6   6   6   6
                       6   6   6   6
 47      1     6       6   6   6   6   3   6
                       8   8   8   8   4   8
                       5   5   5   5   3   5
                       7   7   7   7   4   7
 48      1     6       7   7   7   4   7   7
                       9   9   9   5   9   9
                       3   3   3   2   3   3
                       8   8   8   4   8   8
 49      1     7       1   1   1   1   1   1   1
                       1   1   1   1   1   1   1
                      10  10  10  10  10  10  10
                      10  10  10  10  10  10  10
 50      1     9       9   9   5   9   9   9   5   9   9
                       8   8   4   8   8   8   4   8   8
                       9   9   5   9   9   9   5   9   9
                       4   4   2   4   4   4   2   4   4
 51      1     1       3
                       9
                       6
                       7
 52      1     5       8   8   4   4   8
                       5   5   3   3   5
                       4   4   2   2   4
                       2   2   1   1   2
 53      1     7       1   1   1   1   1   1   1
                       5   5   5   5   5   3   5
                       5   5   5   5   5   3   5
                       3   3   3   3   3   2   3
 54      1     3       4   4   4
                       1   1   1
                       6   6   6
                       6   6   6
 55      1     5       9   5   9   9   9
                       3   2   3   3   3
                       5   3   5   5   5
                       9   5   9   9   9
 56      1     8       3   3   3   2   3   3   3   3
                       9   9   9   5   9   9   9   9
                       8   8   8   4   8   8   8   8
                       4   4   4   2   4   4   4   4
 57      1     4       9   9   5   5
                      10  10   5   5
                       1   1   1   1
                       9   9   5   5
 58      1     9       2   2   2   2   2   2   2   1   2
                       5   5   5   5   5   5   5   3   5
                       8   8   8   8   8   8   8   4   8
                       4   4   4   4   4   4   4   2   4
 59      1     9       1   1   1   1   1   1   1   1   1
                       4   2   4   4   2   4   2   4   4
                       8   4   8   8   4   8   4   8   8
                       2   1   2   2   1   2   1   2   2
 60      1     2       8   4
                      10   5
                      10   5
                       6   3
 61      1    10       1   1   1   1   1   1   1   1   1   1
                       5   9   9   9   9   9   9   9   9   9
                       5  10  10  10  10  10  10  10  10  10
                       2   3   3   3   3   3   3   3   3   3
 62      1     9       3   3   3   2   3   3   3   3   3
                       3   3   3   2   3   3   3   3   3
                       9   9   9   5   9   9   9   9   9
                       3   3   3   2   3   3   3   3   3
 63      1     1       1
                       9
                       4
                       2
 64      1     4       7   7   7   7
                       3   3   3   3
                       6   6   6   6
                       4   4   4   4
 65      1     6       4   4   4   2   4   4
                       2   2   2   1   2   2
                       4   4   4   2   4   4
                       3   3   3   2   3   3
 66      1     9       7   7   7   7   7   7   7   4   7
                       3   3   3   3   3   3   3   2   3
                       4   4   4   4   4   4   4   2   4
                      10  10  10  10  10  10  10   5  10
 67      1     4       2   3   3   3
                       3   5   5   5
                       4   8   8   8
                       5  10  10  10
 68      1     6       3   3   3   3   3   2
                       2   2   2   2   2   1
                       8   8   8   8   8   4
                       1   1   1   1   1   1
 69      1     3       1   1   1
                       2   2   3
                       4   4   8
                       1   1   2
 70      1     8       5   3   5   5   5   5   5   3
                      10   5  10  10  10  10  10   5
                       8   4   8   8   8   8   8   4
                       9   5   9   9   9   9   9   5
 71      1     1       4
                       5
                       1
                       3
 72      1     3       6   6   6
                       6   6   6
                       9   9   9
                       5   5   5
 73      1     9       8   8   4   8   8   8   4   8   4
                       3   3   2   3   3   3   2   3   2
                       4   4   2   4   4   4   2   4   2
                       6   6   3   6   6   6   3   6   3
 74      1     8       3   3   3   3   2   3   3   3
                       7   7   7   7   4   7   7   7
                       1   1   1   1   1   1   1   1
                       5   5   5   5   3   5   5   5
 75      1     9       5   5   5   5   3   5   5   5   5
                       3   3   3   3   2   3   3   3   3
                       1   1   1   1   1   1   1   1   1
                       1   1   1   1   1   1   1   1   1
 76      1     4       3   3   3   3
                       3   3   3   3
                       7   7   7   7
                       1   1   1   1
 77      1     6       6   6   6   6   3   6
                       5   5   5   5   3   5
                       1   1   1   1   1   1
                       4   4   4   4   2   4
 78      1     4       3   5   5   5
                       1   2   2   2
                       1   1   1   1
                       5   9   9   9
 79      1     4       9   9   9   9
                      10  10  10  10
                       7   7   7   7
                       3   3   3   3
 80      1     6       5  10   5  10   5   5
                       4   8   4   8   4   4
                       4   8   4   8   4   4
                       5  10   5  10   5   5
 81      1     5       3   6   6   6   3
                       4   7   7   7   4
                       5   9   9   9   5
                       4   8   8   8   4
 82      1     4       2   2   1   2
                       1   1   1   1
                      10  10   5  10
                       1   1   1   1
 83      1     5       6   6   6   6   6
                       3   3   3   3   3
                       6   6   6   6   6
                       1   1   1   1   1
 84      1     4      10  10  10  10
                       8   8   8   8
                       4   4   4   4
                       9   9   9   9
 85      1     6       6   6   6   6   6   6
                       4   4   4   4   4   4
                       9   9   9   9   9   9
                       6   6   6   6   6   6
 86      1     9       1   1   1   1   1   1   1   1   1
                       8   8   8   8   8   8   4   8   8
                       5   5   5   5   5   5   3   5   5
                       6   6   6   6   6   6   3   6   6
 87      1     2       5   3
                       7   4
                      10   5
                       5   3
 88      1     1       1
                       5
                       4
                       8
 89      1     5       8   8   8   8   4
                       1   1   1   1   1
                       6   6   6   6   3
                       2   2   2   2   1
 90      1     3       3   2   3
                       4   2   4
                       1   1   1
                       6   3   6
 91      1     9       2   2   2   2   2   2   2   2   2
                       2   2   2   2   2   2   2   2   2
                       5   5   5   5   5   5   5   5   5
                       8   8   8   8   8   8   8   8   8
 92      1     4       1   1   1   1
                       9   9   9   9
                       5   5   5   5
                       2   2   2   2
 93      1     1       1
                       5
                      10
                      10
 94      1     1       5
                       6
                       5
                       5
 95      1     1       3
                       1
                       3
                       1
 96      1     3       7   7   7
                       8   8   8
                       5   5   5
                       2   2   2
 97      1    10       4   2   4   4   4   2   4   4   2   4
                       5   3   5   5   5   3   5   5   3   5
                       3   2   3   3   3   2   3   3   2   3
                       5   3   5   5   5   3   5   5   3   5
 98      1     8       2   2   3   2   3   3   3   3
                       4   4   8   4   8   8   8   8
                       1   1   2   1   2   2   2   2
                       2   2   3   2   3   3   3   3
 99      1     3       9   5   5
                       5   3   3
                       7   4   4
                       7   4   4
100      1     1       6
                       4
                      10
                       5
101      1     2       4   4
                       8   8
                       3   3
                       1   1
102      1     7       3   2   3   3   2   3   3
                       4   2   4   4   2   4   4
                       4   2   4   4   2   4   4
                       8   4   8   8   4   8   8
103      1     6       8   4   8   8   8   8
                       2   1   2   2   2   2
                       6   3   6   6   6   6
                       1   1   1   1   1   1
104      1     5       3   3   3   3   3
                       6   6   6   6   6
                       5   5   5   5   5
                       2   2   2   2   2
105      1     7       5   5   5   3   5   5   3
                       1   1   1   1   1   1   1
                       5   5   5   3   5   5   3
                       2   2   2   1   2   2   1
106      1     7       9   5   9   9   9   9   9
                       2   1   2   2   2   2   2
                       8   4   8   8   8   8   8
                       4   2   4   4   4   4   4
107      1     8       2   3   3   2   2   3   3   3
                       3   6   6   3   3   6   6   6
                       3   6   6   3   3   6   6   6
                       2   3   3   2   2   3   3   3
108      1     9      10  10  10  10   5  10  10  10  10
                       2   2   2   2   1   2   2   2   2
                       1   1   1   1   1   1   1   1   1
                       7   7   7   7   4   7   7   7   7
109      1     8       9   9   5   9   5   9   9   9
                       2   2   1   2   1   2   2   2
                       3   3   2   3   2   3   3   3
                       4   4   2   4   2   4   4   4
110      1    10       6   6   6   6   6   6   3   6   6   3
                       8   8   8   8   8   8   4   8   8   4
                       5   5   5   5   5   5   3   5   5   3
                       1   1   1   1   1   1   1   1   1   1
111      1     8       9   9   9   9   9   9   9   9
                       8   8   8   8   8   8   8   8
                       7   7   7   7   7   7   7   7
                       7   7   7   7   7   7   7   7
112      1     1       3
                       4
                       6
                       5
113      1     3       6   6   6
                       7   7   7
                       8   8   8
                       8   8   8
114      1    10       5   3   5   5   5   3   5   5   5   3
                       4   2   4   4   4   2   4   4   4   2
                       4   2   4   4   4   2   4   4   4   2
                       2   1   2   2   2   1   2   2   2   1
115      1     2       2   4
                       4   8
                       1   1
                       2   3
116      1     7       4   4   4   4   4   4   2
                       4   4   4   4   4   4   2
                       6   6   6   6   6   6   3
                       8   8   8   8   8   8   4
117      1     7       2   2   2   2   1   2   2
                       2   2   2   2   1   2   2
                       8   8   8   8   4   8   8
                       1   1   1   1   1   1   1
118      1     2       4   4
                       8   8
                       2   2
                       2   2
119      1     9       3   2   3   3   3   3   3   3   2
                       1   1   1   1   1   1   1   1   1
                       5   3   5   5   5   5   5   5   3
                       2   1   2   2   2   2   2   2   1
120      1     2       6   6
                       1   1
                       4   4
                       8   8
121      1     7      10  10  10  10  10  10   5
                       1   1   1   1   1   1   1
                       7   7   7   7   7   7   4
                       8   8   8   8   8   8   4
122      1     0    
************************************************************************
RESOURCEAVAILABILITIES:
  R 1  R 2  R 3  R 4

  27  27  27  27  27  27  14  27  27  27  27  14  27  27  27  27  14  27  27  27  27  27  14  27  27  27  14  27  27  27  27  27  27  27  27  27  27  27  27  27  27  27  27  27  27  27  27  27  27  27  14  27  27  27  27  14  27  27  14  27  27  27  27  14  27  27  27  27  27  27  14  27  27  14  27  14  27  27  27  14  27  27  14  27  27  27  27  27  27  27  27  14  27  27  14  27  27  27  27  27  27  27  27  27  27  27  27  14  27  14  27  27  27  27  27  27  27  27  27  27  14  14  27  27  27  27  27  27  27  14  27  27  27  27  27  27  27  27  27  27  27  27  27  14  27  27  27  27  27  27  27  14  27  14  27  27  14  27  27  27  27  27  27  27  14  27  27  27  27  14  27  27  27  27  27  27  27  27  14  27  27  14  14  27  27  14  27  27  27  27  14  27  14  27  27  27  27  14  27  27  27  27  27  27  27  27  27  14  14  27  27  27  27  27  27  27  14  27  27  27  27  27  27  27  27  27  27  27  27  27  27  27  27  27  27  27  27  27  27  14  27  27  14  27  27  27  27  27  27  27  14  27  27  27  27  27  27  27  14  14  27  27  27  27  27  27  27  27  27  27  27  27  27  27  27  27  27  27  27  27  27  27  27  27  27  27  14  27  27  27  27  27  14  27  27  27  14  27  27  27  27  27  27  27  14  27  27  27  27  27  27  27  27  27  27  14  27  27  27  14  27  27  27  14  27  27  27  27  27  27  27  27  27  27  27  27  27  27  27  27  27  27  27  14  14  14  14  27  14  27  14  27  14  27  27  27  27  14  27  27  27  27  14  27  27  14  27  27  27  27  27  27  27  27  27  27  27  27  27  27  27  27  27  27  27  27  27  27  14  27  27  27  27  27  27  27  27  27  27  14  27  27  27  27  27  27  27  27  14  27  27  27  27  27  27  27  27  14  27  27  27  14  27  27  27  27  27  27  27  27  14  27  14  27  27  27  27  27  27  27  27  27  27  27  27  27  27  27  27  27  14  27  14  14  27  27  27  27  27  27  27  27  27  27  27  14  27  14  27  27  27  27  27  27  27  27  27  14  27  27  27  27  27  27  14  27  14  27  27  27  27  27  27  27  27  27  14  27  27  27  14  27  27  14  27  27  27  27  27  14  27  14  27  27  14  27  27  14  27  27  27  14  14  14  27  27  27  14  27  14  27  27  27  27  27  27  27  27  27  27  27  27  27  14  14  27  14  27  27  27  27  27  27  27  14  14  27  14  27  27  14  27  27  27  27  27  27  27  14  14  27  14  27  27  14  27  27  14  27  27  14  27  27  27  27  27  27  14  27  27  27  27  14  27  27  27  27  27  27  14  27  14  14  14  27  27  14  27  14  27  27  14  27  27  27  14  27  14  27  27  27  14  27  14  27  27  27  27  14  27  27  27  27  27  27  27  14  27  27  27

  30  30  30  30  30  30  15  30  30  30  30  15  30  30  30  30  15  30  30  30  30  30  15  30  30  30  15  30  30  30  30  30  30  30  30  30  30  30  30  30  30  30  30  30  30  30  30  30  30  30  15  30  30  30  30  15  30  30  15  30  30  30  30  15  30  30  30  30  30  30  15  30  30  15  30  15  30  30  30  15  30  30  15  30  30  30  30  30  30  30  30  15  30  30  15  30  30  30  30  30  30  30  30  30  30  30  30  15  30  15  30  30  30  30  30  30  30  30  30  30  15  15  30  30  30  30  30  30  30  15  30  30  30  30  30  30  30  30  30  30  30  30  30  15  30  30  30  30  30  30  30  15  30  15  30  30  15  30  30  30  30  30  30  30  15  30  30  30  30  15  30  30  30  30  30  30  30  30  15  30  30  15  15  30  30  15  30  30  30  30  15  30  15  30  30  30  30  15  30  30  30  30  30  30  30  30  30  15  15  30  30  30  30  30  30  30  15  30  30  30  30  30  30  30  30  30  30  30  30  30  30  30  30  30  30  30  30  30  30  15  30  30  15  30  30  30  30  30  30  30  15  30  30  30  30  30  30  30  15  15  30  30  30  30  30  30  30  30  30  30  30  30  30  30  30  30  30  30  30  30  30  30  30  30  30  30  15  30  30  30  30  30  15  30  30  30  15  30  30  30  30  30  30  30  15  30  30  30  30  30  30  30  30  30  30  15  30  30  30  15  30  30  30  15  30  30  30  30  30  30  30  30  30  30  30  30  30  30  30  30  30  30  30  15  15  15  15  30  15  30  15  30  15  30  30  30  30  15  30  30  30  30  15  30  30  15  30  30  30  30  30  30  30  30  30  30  30  30  30  30  30  30  30  30  30  30  30  30  15  30  30  30  30  30  30  30  30  30  30  15  30  30  30  30  30  30  30  30  15  30  30  30  30  30  30  30  30  15  30  30  30  15  30  30  30  30  30  30  30  30  15  30  15  30  30  30  30  30  30  30  30  30  30  30  30  30  30  30  30  30  15  30  15  15  30  30  30  30  30  30  30  30  30  30  30  15  30  15  30  30  30  30  30  30  30  30  30  15  30  30  30  30  30  30  15  30  15  30  30  30  30  30  30  30  30  30  15  30  30  30  15  30  30  15  30  30  30  30  30  15  30  15  30  30  15  30  30  15  30  30  30  15  15  15  30  30  30  15  30  15  30  30  30  30  30  30  30  30  30  30  30  30  30  15  15  30  15  30  30  30  30  30  30  30  15  15  30  15  30  30  15  30  30  30  30  30  30  30  15  15  30  15  30  30  15  30  30  15  30  30  15  30  30  30  30  30  30  15  30  30  30  30  15  30  30  30  30  30  30  15  30  15  15  15  30  30  15  30  15  30  30  15  30  30  30  15  30  15  30  30  30  15  30  15  30  30  30  30  15  30  30  30  30  30  30  30  15  30  30  30

  29  29  29  29  29  29  15  29  29  29  29  15  29  29  29  29  15  29  29  29  29  29  15  29  29  29  15  29  29  29  29  29  29  29  29  29  29  29  29  29  29  29  29  29  29  29  29  29  29  29  15  29  29  29  29  15  29  29  15  29  29  29  29  15  29  29  29  29  29  29  15  29  29  15  29  15  29  29  29  15  29  29  15  29  29  29  29  29  29  29  29  15  29  29  15  29  29  29  29  29  29  29  29  29  29  29  29  15  29  15  29  29  29  29  29  29  29  29  29  29  15  15  29  29  29  29  29  29  29  15  29  29  29  29  29  29  29  29  29  29  29  29  29  15  29  29  29  29  29  29  29  15  29  15  29  29  15  29  29  29  29  29  29  29  15  29  29  29  29  15  29  29  29  29  29  29  29  29  15  29  29  15  15  29  29  15  29  29  29  29  15  29  15  29  29  29  29  15  29  29  29  29  29  29  29  29  29  15  15  29  29  29  29  29  29  29  15  29  29  29  29  29  29  29  29  29  29  29  29  29  29  29  29  29  29  29  29  29  29  15  29  29  15  29  29  29  29  29  29  29  15  29  29  29  29  29  29  29  15  15  29  29  29  29  29  29  29  29  29  29  29  29  29  29  29  29  29  29  29  29  29  29  29  29  29  29  15  29  29  29  29  29  15  29  29  29  15  29  29  29  29  29  29  29  15  29  29  29  29  29  29  29  29  29  29  15  29  29  29  15  29  29  29  15  29  29  29  29  29  29  29  29  29  29  29  29  29  29  29  29  29  29  29  15  15  15  15  29  15  29  15  29  15  29  29  29  29  15  29  29  29  29  15  29  29  15  29  29  29  29  29  29  29  29  29  29  29  29  29  29  29  29  29  29  29  29  29  29  15  29  29  29  29  29  29  29  29  29  29  15  29  29  29  29  29  29  29  29  15  29  29  29  29  29  29  29  29  15  29  29  29  15  29  29  29  29  29  29  29  29  15  29  15  29  29  29  29  29  29  29  29  29  29  29  29  29  29  29  29  29  15  29  15  15  29  29  29  29  29  29  29  29  29  29  29  15  29  15  29  29  29  29  29  29  29  29  29  15  29  29  29  29  29  29  15  29  15  29  29  29  29  29  29  29  29  29  15  29  29  29  15  29  29  15  29  29  29  29  29  15  29  15  29  29  15  29  29  15  29  29  29  15  15  15  29  29  29  15  29  15  29  29  29  29  29  29  29  29  29  29  29  29  29  15  15  29  15  29  29  29  29  29  29  29  15  15  29  15  29  29  15  29  29  29  29  29  29  29  15  15  29  15  29  29  15  29  29  15  29  29  15  29  29  29  29  29  29  15  29  29  29  29  15  29  29  29  29  29  29  15  29  15  15  15  29  29  15  29  15  29  29  15  29  29  29  15  29  15  29  29  29  15  29  15  29  29  29  29  15  29  29  29  29  29  29  29  15  29  29  29

  28  28  28  28  28  28  14  28  28  28  28  14  28  28  28  28  14  28  28  28  28  28  14  28  28  28  14  28  28  28  28  28  28  28  28  28  28  28  28  28  28  28  28  28  28  28  28  28  28  28  14  28  28  28  28  14  28  28  14  28  28  28  28  14  28  28  28  28  28  28  14  28  28  14  28  14  28  28  28  14  28  28  14  28  28  28  28  28  28  28  28  14  28  28  14  28  28  28  28  28  28  28  28  28  28  28  28  14  28  14  28  28  28  28  28  28  28  28  28  28  14  14  28  28  28  28  28  28  28  14  28  28  28  28  28  28  28  28  28  28  28  28  28  14  28  28  28  28  28  28  28  14  28  14  28  28  14  28  28  28  28  28  28  28  14  28  28  28  28  14  28  28  28  28  28  28  28  28  14  28  28  14  14  28  28  14  28  28  28  28  14  28  14  28  28  28  28  14  28  28  28  28  28  28  28  28  28  14  14  28  28  28  28  28  28  28  14  28  28  28  28  28  28  28  28  28  28  28  28  28  28  28  28  28  28  28  28  28  28  14  28  28  14  28  28  28  28  28  28  28  14  28  28  28  28  28  28  28  14  14  28  28  28  28  28  28  28  28  28  28  28  28  28  28  28  28  28  28  28  28  28  28  28  28  28  28  14  28  28  28  28  28  14  28  28  28  14  28  28  28  28  28  28  28  14  28  28  28  28  28  28  28  28  28  28  14  28  28  28  14  28  28  28  14  28  28  28  28  28  28  28  28  28  28  28  28  28  28  28  28  28  28  28  14  14  14  14  28  14  28  14  28  14  28  28  28  28  14  28  28  28  28  14  28  28  14  28  28  28  28  28  28  28  28  28  28  28  28  28  28  28  28  28  28  28  28  28  28  14  28  28  28  28  28  28  28  28  28  28  14  28  28  28  28  28  28  28  28  14  28  28  28  28  28  28  28  28  14  28  28  28  14  28  28  28  28  28  28  28  28  14  28  14  28  28  28  28  28  28  28  28  28  28  28  28  28  28  28  28  28  14  28  14  14  28  28  28  28  28  28  28  28  28  28  28  14  28  14  28  28  28  28  28  28  28  28  28  14  28  28  28  28  28  28  14  28  14  28  28  28  28  28  28  28  28  28  14  28  28  28  14  28  28  14  28  28  28  28  28  14  28  14  28  28  14  28  28  14  28  28  28  14  14  14  28  28  28  14  28  14  28  28  28  28  28  28  28  28  28  28  28  28  28  14  14  28  14  28  28  28  28  28  28  28  14  14  28  14  28  28  14  28  28  28  28  28  28  28  14  14  28  14  28  28  14  28  28  14  28  28  14  28  28  28  28  28  28  14  28  28  28  28  14  28  28  28  28  28  28  14  28  14  14  14  28  28  14  28  14  28  28  14  28  28  28  14  28  14  28  28  28  14  28  14  28  28  28  28  14  28  28  28  28  28  28  28  14  28  28  28

************************************************************************
